50
12879

750 111
291 13
936 248
794 208
39 926
501 433
5 139
535 300
678 721
327 116
854 279
202 124
472 929
511 749
875 105
565 558
773 76
758 477
376 566
624 31
154 150
558 781
970 794
775 801
735 746
268 726
539 493
479 26
409 729
913 618
917 645
744 668
339 139
618 903
225 562
129 610
677 631
962 948
485 195
45 162
526 271
831 190
46 327
153 902
48 377
512 551
542 316
704 155
299 981
549 828
